n = 14;
lu = [|-125, 63
      |-119, -65
      |-4, -2
      |-16, -8
      |-97, -93
      |-69, 75
      |69, 113
      |144, 175
      |-104, -103
      |30, 92
      |-117, 70
      |132, 147
      |-112, -79
      |-194, 187|];
